c instance by G2
c solution = 100101000100000
c Known solution cost is 67
p cnf 15 15
w 9 3 2 5 6 0 4 2 3 5 3 8 3 5 9
-9 8 2 0
-9 -6 -12 0
6 -2 5 0
-1 -3 15 0
-10 -9 7 0
-6 9 4 0
8 -11 1 0
-10 -5 8 0
2 8 -11 0
1 -8 -12 0
3 11 -14 0
15 -5 10 0
12 3 4 0
10 7 -3 0
9 -4 -14 0
